Route #1: 69 88 53 78 60 
Route #2: 98 73 79 6 55 68 
Route #3: 14 47 16 15 87 97 58 77 
Route #4: 82 12 11 9 10 13 17 
Route #5: 95 63 85 84 56 66 
Route #6: 42 44 43 37 35 
Route #7: 27 29 31 34 50 80 
Route #8: 61 81 90 
Route #9: 83 23 21 19 18 49 48 25 
Route #10: 59 75 86 74 
Route #11: 92 33 30 28 26 32 93 
Route #12: 62 67 71 94 
Route #13: 65 52 99 57 22 20 24 
Route #14: 64 51 76 89 91 
Route #15: 5 45 2 7 8 46 3 1 4 100 70 
Route #16: 72 39 36 40 38 41 54 96 
Objective: 358332.4
